p edge 37 142
v 1 400
v 2 200
v 3 90
v 4 50
v 5 30
v 6 500
v 7 50
v 8 280
v 9 150
v 10 280
v 11 500
v 12 40
v 13 240
v 14 60
v 15 10
v 16 760
v 17 460
v 18 170
v 19 300
v 20 140
v 21 70
v 22 430
v 23 560
v 24 90
v 25 160
v 26 40
v 27 40
v 28 70
v 29 150
v 30 10
v 31 50
v 32 60
v 33 100
v 34 480
v 35 340
v 36 20
v 37 210
e 1 2
e 1 3
e 1 4
e 1 5
e 1 16
e 1 19
e 2 3
e 2 4
e 2 5
e 2 11
e 2 24
e 2 29
e 2 34
e 3 4
e 3 5
e 3 6
e 3 12
e 3 25
e 3 30
e 3 35
e 4 5
e 4 9
e 4 18
e 4 28
e 5 10
e 5 15
e 5 23
e 5 33
e 5 37
e 6 7
e 6 8
e 6 9
e 6 10
e 6 12
e 6 25
e 6 30
e 6 35
e 7 8
e 7 9
e 7 10
e 7 13
e 7 17
e 7 20
e 8 9
e 8 10
e 8 14
e 8 22
e 8 27
e 8 32
e 8 36
e 9 10
e 9 18
e 9 28
e 10 15
e 10 23
e 10 33
e 10 37
e 11 12
e 11 13
e 11 14
e 11 15
e 11 24
e 11 29
e 11 34
e 12 13
e 12 14
e 12 15
e 12 25
e 12 30
e 12 35
e 13 14
e 13 15
e 13 17
e 13 20
e 14 15
e 14 22
e 14 27
e 14 32
e 14 36
e 15 23
e 15 33
e 15 37
e 16 17
e 16 18
e 16 19
e 17 18
e 17 20
e 18 28
e 19 20
e 19 21
e 19 22
e 19 23
e 20 21
e 20 22
e 20 23
e 21 22
e 21 23
e 21 26
e 21 31
e 22 23
e 22 27
e 22 32
e 22 36
e 23 33
e 23 37
e 24 25
e 24 26
e 24 27
e 24 28
e 24 29
e 24 34
e 25 26
e 25 27
e 25 28
e 25 30
e 25 35
e 26 27
e 26 28
e 26 31
e 27 28
e 27 32
e 27 36
e 29 30
e 29 31
e 29 32
e 29 33
e 29 34
e 30 31
e 30 32
e 30 33
e 30 35
e 31 32
e 31 33
e 32 33
e 32 36
e 33 37
e 34 35
e 34 36
e 34 37
e 35 36
e 35 37
e 36 37
